atom_style	sphere
atom_modify	map array sort 0 0
boundary	m m m
newton		off

communicate	single vel yes
processors	3 3 1

units		si

region		reg block 0.0 0.01 0.0 0.01 0. 0.04 units box
create_box	1 reg

neighbor	0.004 bin
neigh_modify	delay 0

#Material properties required for granular pair styles

fix 		m1 all property/global youngsModulus peratomtype 1.e7
fix 		m2 all property/global poissonsRatio peratomtype 0.45
fix 		m3 all property/global coefficientRestitution peratomtypepair 1 0.3
fix 		m4 all property/global coefficientFriction peratomtypepair 1 0.5
fix 		m5 all property/global characteristicVelocity scalar 1.

###fix cfd  all couple/cfd couple_every 10 mpi
###fix cfd2 all couple/cfd/force



#pair style
pair_style gran model hertz tangential history #Hertzian without cohesion
pair_coeff	* *

timestep	0.00005

#fix		gravi all gravity 9.81 vector 0.0 0.0 -1.0

fix zwalls all wall/gran model hertz tangential history primitive type 1 zplane 0.0

#distributions for insertion
###fix		pts1 all particletemplate/multisphere 1 atom_type 1 density constant 2500 nspheres 35 ntry 1000000 spheres file ../DEM/data/n64 scale 0.1 type 1
fix		pts1 all particletemplate/multisphere 1 atom_type 1 density constant 2500  &
		nspheres 35 ntry 1000000 spheres file data/n64.txt scale 0.00001 type 1
fix		pdd1 all particledistribution/discrete 1.  1 pts1 1.0


#region and insertion
##region bc block 0.0025 0.0075 0.0025 0.0075 0.034 0.036 units box

fix		ins all insert/pack seed 100001 distributiontemplate pdd1 vel constant 0. 0. -1. &
	insert_every once random_distribute exact overlapcheck yes all_in no region reg &
	ntry_mc 10000 particles_in_region 1 pos 0.005 0.005 0.005
	#volumefraction_region 0.0004

#integrator for multisphere rigid bodies
fix		integr all multisphere



#output settings, include total thermal energy
###compute		1 all erotate/sphere
###fix		ts all check/timestep/gran 1000 0.1 0.1
compute rke all erotate/multisphere
thermo_style    custom step atoms ke c_rke
thermo_modify   lost ignore norm no
compute_modify	thermo_temp dynamic yes

#run 1
#insert the first particles so that dump is not empty
###dump            dmp all custom 1000 ../DEM/post/dump.liggghts_run id type x y z vx vy vz fx fy fz omegax omegay omegaz radius
dump            dmp all custom 1 post/dump*.liggghts_run id type x y z vx vy vz fx fy fz omegax omegay omegaz radius
#dump            dmp all custom/vtk 1 post/liggghts_run_*.vtk id type x y z vx vy vz fx fy fz omegax omegay omegaz radius

#insert particles
run	1


